Version identifier: 22.1.1.0 | 2022-11-28 | 9160aff4d
CPXPARAM_Threads                                 1
CPXPARAM_MIP_Strategy_VariableSelect             3
CPXPARAM_TimeLimit                               599.99999388599997
1 of 1 MIP starts provided solutions.
MIP start 'm1' defined initial solution with objective 47.0000.
Tried aggregator 1 time.
MIP Presolve eliminated 409 rows and 796 columns.
MIP Presolve modified 1 coefficients.
Reduced MIP has 995 rows, 1592 columns, and 13227 nonzeros.
Reduced MIP has 1592 binaries, 0 generals, 0 SOSs, and 0 indicators.
Presolve time = 0.01 sec. (9.09 ticks)
Probing time = 0.00 sec. (3.86 ticks)
Tried aggregator 1 time.
Detecting symmetries...
Reduced MIP has 995 rows, 1592 columns, and 13227 nonzeros.
Reduced MIP has 1592 binaries, 0 generals, 0 SOSs, and 0 indicators.
Presolve time = 0.01 sec. (7.35 ticks)
Probing time = 0.00 sec. (3.86 ticks)
Clique table members: 398.
MIP emphasis: balance optimality and feasibility.
MIP search method: dynamic search.
Parallel mode: none, using 1 thread.
Root relaxation solution time = 0.01 sec. (13.69 ticks)

        Nodes                                         Cuts/
   Node  Left     Objective  IInf  Best Integer    Best Bound    ItCnt     Gap

*     0+    0                           47.0000     1592.0000              --- 
      0     0      199.0000    40       47.0000      199.0000      585  323.40%
*     0+    0                          199.0000      199.0000             0.00%
      0     0        cutoff            199.0000      199.0000      585    0.00%
Elapsed time = 0.07 sec. (93.86 ticks, tree = 0.01 MB, solutions = 2)

Root node processing (before b&c):
  Real time             =    0.07 sec. (93.95 ticks)
Sequential b&c:
  Real time             =    0.00 sec. (0.00 ticks)
                          ------------
Total (root+branch&cut) =    0.07 sec. (93.95 ticks)
Primal:	199
Dual:	199
Status:	Optimal
Time:	0.08
Sequence:
	0
	5
	10
	9
	5
	0
	9
	5
	9
	5
	0
	10
	9
	5
	5
	9
	5
	1
	4
	10
	0
	5
	4
	10
	0
	5
	9
	4
	5
	1
	0
	4
	5
	1
	5
	9
	5
	9
	5
	5
	0
	9
	5
	9
	9
	5
	9
	5
	9
	5
	0
	1
	4
	0
	5
	4
	0
	1
	1
	4
	5
	0
	9
	10
	10
	0
	9
	5
	10
	1
	4
	1
	4
	0
	5
	5
	9
	9
	1
	5
	5
	9
	5
	9
	5
	5
	9
	1
	9
	1
	5
	4
	0
	5
	9
	10
	1
	4
	1
	9
	0
	10
	9
	9
	9
	9
	9
	9
	9
	9
	4
	4
	9
	4
	9
	4
	5
	0
	9
	1
	9
	1
	9
	1
	4
	1
	5
	4
	3
	0
	4
	1
	9
	0
	4
	10
	4
	0
	4
	5
	1
	9
	0
	5
	9
	8
	5
	9
	5
	4
	0
	4
	1
	4
	1
	1
	1
	4
	10
	9
	0
	5
	4
	0
	5
	10
	4
	5
	0
	5
	4
	9
	5
	0
	4
	9
	10
	0
	9
	10
	1
	9
	1
	1
	4
	1
	1
	9
	0
	10
	4
	1
	1
	1
	9
	5
	10
	1
	4
